Medium-instances_NetworkFacilityLocation/2023-03-27_20hr-25min-09sec/Nodes10_Arcs35_LocNodes8/Formulation-2Instance-4.lp
\ Model LocPrice
\ LP format - for model browsing. Use MPS format to capture full model detail.
Maximize
  - 188 x[1] - 195 x[2] - 189 x[3] - 189 x[4] - 168 x[5] - 197 x[6]
   - 179 x[7] - 173 x[9] - 4.600277300025944 Q[1] - 3.517053225115283 Q[2]
   - 4.345219399366025 Q[3] - 3.150690869329105 Q[4]
   - 3.493739585511583 Q[5] - 3.716240874858205 Q[6]
   - 3.344110932492146 Q[7] - 3.520590707284623 Q[9]
   - 0.0779032783367841 f[2,1] - 2.318995506624279 f[3,2]
   - 1.2660427337534 f[4,3] - 2.928607123705921 f[5,3]
   - 2.323552322054445 f[6,5] - 2.606411979413509 f[7,2]
   - 1.697979945602632 f[8,3] - 1.018542861988654 f[9,2]
   - 2.563164324373784 f[10,1] - 1.371835841926432 f[3,5]
   - 2.572009321378208 f[6,3] - 1.424960612194769 f[1,8]
   - 2.805106765186 f[5,4] - 2.499225967972346 f[4,10]
   - 1.497299003624349 f[8,7] - 0.6290061205727866 f[7,3]
   - 0.7919770768983878 f[6,1] - 2.232323824712442 f[10,6]
   - 2.016976610190696 f[8,1] - 1.78201188154301 f[2,10]
   - 1.853463846053801 f[2,4] - 1.699836178698341 f[3,10]
   - 1.921396654712249 f[1,3] - 2.9811541333678 f[6,9]
   - 1.701162591359058 f[9,3] - 1.345204766328899 f[4,8]
   - 0.5312836058667948 f[9,10] - 2.843709854276379 f[2,6]
   - 0.2842184088161818 f[7,8] - 1.293864444499299 f[10,2]
   - 1.363693942107097 f[9,8] - 0.86052565368636 f[2,5]
   - 1.12007611215657 f[5,9] - 2.781420493505744 f[3,7]
   - 0.972317207007986 f[8,4] + 1349 D[1] + 1410 D[5] + 1376 D[6]
   + 1391 D[9] + 1314 D[10] - 1.413160937635044 S[2]
   - 1.871318342042068 S[3] - 1.913216779379713 S[4]
   - 1.354132008492151 S[9] - 1.725215437601971 S[10] + [
   - 0.8072129981735445 f[2,1] ^2 - 0.1590547884506357 f[3,2] ^2
   - 1.371475993336302 f[4,3] ^2 - 1.872998727548256 f[5,3] ^2
   - 1.669397736058687 f[6,5] ^2 - 3.598095632944818 f[7,2] ^2
   - 0.3554974667504616 f[8,3] ^2 - 2.495863977609631 f[9,2] ^2
   - 1.394947092624699 f[10,1] ^2 - 1.225419700835694 f[3,5] ^2
   - 2.55559192421665 f[6,3] ^2 - 2.466339463493878 f[1,8] ^2
   - 0.8209224923805731 f[5,4] ^2 - 2.338227929187493 f[4,10] ^2
   - 3.462454542655034 f[8,7] ^2 - 1.982281691919267 f[7,3] ^2
   - 2.923329796334116 f[6,1] ^2 - 2.899284888212653 f[10,6] ^2
   - 3.466018450928331 f[8,1] ^2 - 2.976950544379025 f[2,10] ^2
   - 2.483408344776046 f[2,4] ^2 - 2.502598431071898 f[3,10] ^2
   - 3.515706528405373 f[1,3] ^2 - 1.352998974340924 f[6,9] ^2
   - 1.97761099444781 f[9,3] ^2 - 3.21782030354519 f[4,8] ^2
   - 2.741512953290383 f[9,10] ^2 - 0.7005357880674787 f[2,6] ^2
   - 2.294221669306763 f[7,8] ^2 - 3.261776435918378 f[10,2] ^2
   - 1.994299863374672 f[9,8] ^2 - 2.15848457475345 f[2,5] ^2
   - 2.91588549375063 f[5,9] ^2 - 0.5921189535161142 f[3,7] ^2
   - 0.6587815839799669 f[8,4] ^2 - 7.386157060074066 D[1] ^2
   - 6.113711974691876 D[5] ^2 - 6.929909847168807 D[6] ^2
   - 7.995984281287198 D[9] ^2 - 6.806554742991029 D[10] ^2
   - 1.627419109328146 S[2] ^2 - 1.995748224732588 S[3] ^2
   - 0.9149444277933527 S[4] ^2 - 0.4014240332552053 S[9] ^2
   - 0.5164614779361338 S[10] ^2 ] / 2 
Subject To
 R0: Q[1] + Q[2] + Q[3] + Q[4] + Q[5] + Q[6] + Q[7] + Q[9] <= 700
 R1: - 133 x[1] + Q[1] <= 0
 R2: - 122 x[2] + Q[2] <= 0
 R3: - 190 x[3] + Q[3] <= 0
 R4: - 109 x[4] + Q[4] <= 0
 R5: - 146 x[5] + Q[5] <= 0
 R6: - 158 x[6] + Q[6] <= 0
 R7: - 196 x[7] + Q[7] <= 0
 R8: - 142 x[9] + Q[9] <= 0
 node[7]: - Q[7] + f[7,2] - f[8,7] + f[7,3] + f[7,8] - f[3,7] = 0
 node[2]: - Q[2] + f[2,1] - f[3,2] - f[7,2] - f[9,2] + f[2,10] + f[2,4]
   + f[2,6] - f[10,2] + f[2,5] - S[2] = 0
 node[3]: - Q[3] + f[3,2] - f[4,3] - f[5,3] - f[8,3] + f[3,5] - f[6,3]
   - f[7,3] + f[3,10] - f[1,3] - f[9,3] + f[3,7] - S[3] = 0
 node[4]: - Q[4] + f[4,3] - f[5,4] + f[4,10] - f[2,4] + f[4,8] - f[8,4]
   - S[4] = 0
 node[1]: - Q[1] - f[2,1] - f[10,1] + f[1,8] - f[6,1] - f[8,1] + f[1,3]
   + D[1] = 0
 node[5]: - Q[5] + f[5,3] - f[6,5] - f[3,5] + f[5,4] - f[2,5] + f[5,9]
   + D[5] = 0
 node[6]: - Q[6] + f[6,5] + f[6,3] + f[6,1] - f[10,6] + f[6,9] - f[2,6]
   + D[6] = 0
 node[9]: - Q[9] + f[9,2] - f[6,9] + f[9,3] + f[9,10] + f[9,8] - f[5,9]
   + D[9] - S[9] = 0
 node[8]: f[8,3] - f[1,8] + f[8,7] + f[8,1] - f[4,8] - f[7,8] - f[9,8]
   + f[8,4] = 0
 node[10]: f[10,1] - f[4,10] + f[10,6] - f[2,10] - f[3,10] - f[9,10]
   + f[10,2] + D[10] - S[10] = 0
 Cost_Flow[2,1]: - pi[1] + pi[2] + 0.4036064990867723 f[2,1] - mu_f[2,1]
   = -0.0779032783367841
 Cost_Flow[3,2]: - pi[2] + pi[3] + 0.0795273942253178 f[3,2] - mu_f[3,2]
   = -2.318995506624279
 Cost_Flow[4,3]: - pi[3] + pi[4] + 0.6857379966681512 f[4,3] - mu_f[4,3]
   = -1.2660427337534
 Cost_Flow[5,3]: - pi[3] + pi[5] + 0.9364993637741279 f[5,3] - mu_f[5,3]
   = -2.928607123705921
 Cost_Flow[6,5]: - pi[5] + pi[6] + 0.8346988680293437 f[6,5] - mu_f[6,5]
   = -2.323552322054445
 Cost_Flow[7,2]: - pi[2] + pi[7] + 1.799047816472409 f[7,2] - mu_f[7,2]
   = -2.606411979413509
 Cost_Flow[8,3]: - pi[3] + pi[8] + 0.1777487333752308 f[8,3] - mu_f[8,3]
   = -1.697979945602632
 Cost_Flow[9,2]: - pi[2] + pi[9] + 1.247931988804815 f[9,2] - mu_f[9,2]
   = -1.018542861988654
 Cost_Flow[10,1]: - pi[1] + pi[10] + 0.6974735463123494 f[10,1]
   - mu_f[10,1] = -2.563164324373784
 Cost_Flow[3,5]: pi[3] - pi[5] + 0.6127098504178472 f[3,5] - mu_f[3,5]
   = -1.371835841926432
 Cost_Flow[6,3]: - pi[3] + pi[6] + 1.277795962108325 f[6,3] - mu_f[6,3]
   = -2.572009321378208
 Cost_Flow[1,8]: pi[1] - pi[8] + 1.233169731746939 f[1,8] - mu_f[1,8]
   = -1.424960612194769
 Cost_Flow[5,4]: - pi[4] + pi[5] + 0.4104612461902866 f[5,4] - mu_f[5,4]
   = -2.805106765186
 Cost_Flow[4,10]: pi[4] - pi[10] + 1.169113964593747 f[4,10] - mu_f[4,10]
   = -2.499225967972346
 Cost_Flow[8,7]: - pi[7] + pi[8] + 1.731227271327517 f[8,7] - mu_f[8,7]
   = -1.497299003624349
 Cost_Flow[7,3]: - pi[3] + pi[7] + 0.9911408459596334 f[7,3] - mu_f[7,3]
   = -0.6290061205727866
 Cost_Flow[6,1]: - pi[1] + pi[6] + 1.461664898167058 f[6,1] - mu_f[6,1]
   = -0.7919770768983878
 Cost_Flow[10,6]: - pi[6] + pi[10] + 1.449642444106326 f[10,6] - mu_f[10,6]
   = -2.232323824712442
 Cost_Flow[8,1]: - pi[1] + pi[8] + 1.733009225464166 f[8,1] - mu_f[8,1]
   = -2.016976610190696
 Cost_Flow[2,10]: pi[2] - pi[10] + 1.488475272189512 f[2,10] - mu_f[2,10]
   = -1.78201188154301
 Cost_Flow[2,4]: pi[2] - pi[4] + 1.241704172388023 f[2,4] - mu_f[2,4]
   = -1.853463846053801
 Cost_Flow[3,10]: pi[3] - pi[10] + 1.251299215535949 f[3,10] - mu_f[3,10]
   = -1.699836178698341
 Cost_Flow[1,3]: pi[1] - pi[3] + 1.757853264202687 f[1,3] - mu_f[1,3]
   = -1.921396654712249
 Cost_Flow[6,9]: pi[6] - pi[9] + 0.6764994871704619 f[6,9] - mu_f[6,9]
   = -2.9811541333678
 Cost_Flow[9,3]: - pi[3] + pi[9] + 0.9888054972239051 f[9,3] - mu_f[9,3]
   = -1.701162591359058
 Cost_Flow[4,8]: pi[4] - pi[8] + 1.608910151772595 f[4,8] - mu_f[4,8]
   = -1.345204766328899
 Cost_Flow[9,10]: pi[9] - pi[10] + 1.370756476645192 f[9,10] - mu_f[9,10]
   = -0.5312836058667948
 Cost_Flow[2,6]: pi[2] - pi[6] + 0.3502678940337394 f[2,6] - mu_f[2,6]
   = -2.843709854276379
 Cost_Flow[7,8]: pi[7] - pi[8] + 1.147110834653381 f[7,8] - mu_f[7,8]
   = -0.2842184088161818
 Cost_Flow[10,2]: - pi[2] + pi[10] + 1.630888217959189 f[10,2] - mu_f[10,2]
   = -1.293864444499299
 Cost_Flow[9,8]: - pi[8] + pi[9] + 0.9971499316873358 f[9,8] - mu_f[9,8]
   = -1.363693942107097
 Cost_Flow[2,5]: pi[2] - pi[5] + 1.079242287376725 f[2,5] - mu_f[2,5]
   = -0.86052565368636
 Cost_Flow[5,9]: pi[5] - pi[9] + 1.457942746875315 f[5,9] - mu_f[5,9]
   = -1.12007611215657
 Cost_Flow[3,7]: pi[3] - pi[7] + 0.2960594767580571 f[3,7] - mu_f[3,7]
   = -2.781420493505744
 Cost_Flow[8,4]: - pi[4] + pi[8] + 0.3293907919899834 f[8,4] - mu_f[8,4]
   = -0.972317207007986
 Cost_Demand[1]: pi[1] + 3.693078530037033 D[1] - mu_D[1] = 1349
 Cost_Demand[5]: pi[5] + 3.056855987345938 D[5] - mu_D[5] = 1410
 Cost_Demand[6]: pi[6] + 3.464954923584403 D[6] - mu_D[6] = 1376
 Cost_Demand[9]: pi[9] + 3.997992140643599 D[9] - mu_D[9] = 1391
 Cost_Demand[10]: pi[10] + 3.403277371495514 D[10] - mu_D[10] = 1314
 Cost_Supply[2]: - pi[2] + 0.8137095546640731 S[2] - mu_S[2]
   = -1.413160937635044
 Cost_Supply[3]: - pi[3] + 0.9978741123662942 S[3] - mu_S[3]
   = -1.871318342042068
 Cost_Supply[4]: - pi[4] + 0.4574722138966764 S[4] - mu_S[4]
   = -1.913216779379713
 Cost_Supply[9]: - pi[9] + 0.2007120166276026 S[9] - mu_S[9]
   = -1.354132008492151
 Cost_Supply[10]: - pi[10] + 0.2582307389680669 S[10] - mu_S[10]
   = -1.725215437601971
Bounds
Binaries
 x[1] x[2] x[3] x[4] x[5] x[6] x[7] x[9]
SOS
 s0:  S1 :: f[2,1]:1 mu_f[2,1]:2
 s1:  S1 :: f[3,2]:1 mu_f[3,2]:2
 s2:  S1 :: f[4,3]:1 mu_f[4,3]:2
 s3:  S1 :: f[5,3]:1 mu_f[5,3]:2
 s4:  S1 :: f[6,5]:1 mu_f[6,5]:2
 s5:  S1 :: f[7,2]:1 mu_f[7,2]:2
 s6:  S1 :: f[8,3]:1 mu_f[8,3]:2
 s7:  S1 :: f[9,2]:1 mu_f[9,2]:2
 s8:  S1 :: f[10,1]:1 mu_f[10,1]:2
 s9:  S1 :: f[3,5]:1 mu_f[3,5]:2
 s10:  S1 :: f[6,3]:1 mu_f[6,3]:2
 s11:  S1 :: f[1,8]:1 mu_f[1,8]:2
 s12:  S1 :: f[5,4]:1 mu_f[5,4]:2
 s13:  S1 :: f[4,10]:1 mu_f[4,10]:2
 s14:  S1 :: f[8,7]:1 mu_f[8,7]:2
 s15:  S1 :: f[7,3]:1 mu_f[7,3]:2
 s16:  S1 :: f[6,1]:1 mu_f[6,1]:2
 s17:  S1 :: f[10,6]:1 mu_f[10,6]:2
 s18:  S1 :: f[8,1]:1 mu_f[8,1]:2
 s19:  S1 :: f[2,10]:1 mu_f[2,10]:2
 s20:  S1 :: f[2,4]:1 mu_f[2,4]:2
 s21:  S1 :: f[3,10]:1 mu_f[3,10]:2
 s22:  S1 :: f[1,3]:1 mu_f[1,3]:2
 s23:  S1 :: f[6,9]:1 mu_f[6,9]:2
 s24:  S1 :: f[9,3]:1 mu_f[9,3]:2
 s25:  S1 :: f[4,8]:1 mu_f[4,8]:2
 s26:  S1 :: f[9,10]:1 mu_f[9,10]:2
 s27:  S1 :: f[2,6]:1 mu_f[2,6]:2
 s28:  S1 :: f[7,8]:1 mu_f[7,8]:2
 s29:  S1 :: f[10,2]:1 mu_f[10,2]:2
 s30:  S1 :: f[9,8]:1 mu_f[9,8]:2
 s31:  S1 :: f[2,5]:1 mu_f[2,5]:2
 s32:  S1 :: f[5,9]:1 mu_f[5,9]:2
 s33:  S1 :: f[3,7]:1 mu_f[3,7]:2
 s34:  S1 :: f[8,4]:1 mu_f[8,4]:2
 s35:  S1 :: D[1]:1 mu_D[1]:2
 s36:  S1 :: D[5]:1 mu_D[5]:2
 s37:  S1 :: D[6]:1 mu_D[6]:2
 s38:  S1 :: D[9]:1 mu_D[9]:2
 s39:  S1 :: D[10]:1 mu_D[10]:2
 s40:  S1 :: S[2]:1 mu_S[2]:2
 s41:  S1 :: S[3]:1 mu_S[3]:2
 s42:  S1 :: S[4]:1 mu_S[4]:2
 s43:  S1 :: S[9]:1 mu_S[9]:2
 s44:  S1 :: S[10]:1 mu_S[10]:2
End
