Medium-instances_NetworkFacilityLocation/2023-03-27_20hr-25min-09sec/Nodes10_Arcs35_LocNodes8/Formulation-2Instance-4.log

Gurobi 9.5.2 (win64) logging started Mon Mar 27 20:26:00 2023

Set parameter LogFile to value "2023-03-27_20hr-25min-09sec/Nodes10_Arcs35_LocNodes8/Formulation-2Instance-4.log"
Set parameter TimeLimit to value 600
Set parameter IntFeasTol to value 1e-09
Set parameter DualReductions to value 0
Set parameter NonConvex to value 2
Gurobi Optimizer version 9.5.2 build v9.5.2rc0 (win64)
Thread count: 4 physical cores, 8 logical processors, using up to 8 threads
Optimize a model with 64 rows, 116 columns and 282 nonzeros
Model fingerprint: 0x1a082683
Model has 45 quadratic objective terms
Model has 45 SOS constraints
Variable types: 108 continuous, 8 integer (8 binary)
Coefficient statistics:
  Matrix range     [8e-02, 2e+02]
  Objective range  [8e-02, 1e+03]
  QObjective range [2e-01, 8e+00]
  Bounds range     [1e+00, 1e+00]
  RHS range        [8e-02, 1e+03]
Presolve time: 0.00s
Presolved: 64 rows, 116 columns, 282 nonzeros
Presolved model has 45 SOS constraint(s)
Presolved model has 45 quadratic objective terms
Variable types: 108 continuous, 8 integer (8 binary)

Root relaxation: objective 9.379990e+04, 162 iterations, 0.00 seconds (0.00 work units)

    Nodes    |    Current Node    |     Objective Bounds      |     Work
 Expl Unexpl |  Obj  Depth IntInf | Incumbent    BestBd   Gap | It/Node Time

     0     0 93799.8967    0    7          - 93799.8967      -     -    0s
H    0     0                    93342.013604 93799.8967  0.49%     -    0s
     0     0 93603.4088    0    7 93342.0136 93603.4088  0.28%     -    0s
     0     0 93509.6458    0    7 93342.0136 93509.6458  0.18%     -    0s

Cutting planes:
  Flow cover: 3

Explored 1 nodes (178 simplex iterations) in 0.11 seconds (0.02 work units)
Thread count was 8 (of 8 available processors)

Solution count 1: 93342 

Optimal solution found (tolerance 1.00e-04)
Best objective 9.334201360398e+04, best bound 9.334228742210e+04, gap 0.0003%

User-callback calls 188, time in user-callback 0.00 sec
